\ENCODING=ISO-8859-1
\Problem name: instances

Maximize
 obj:
Subject To
 c1: 52 x1 + 71 x2 + 7 x3 + 97 x4 + 39 x6 + 3 x7 + 21 x8 + 19 x10 <= 284
 c2: 8 x1 + 73 x2 + 29 x3 + 73 x4 + 92 x5 + 24 x6 + 16 x8 + 74 x9 + 71 x10
     <= 339
 c3: 21 x1 - 8 x2 + 68 x3 + 47 x5 + 25 x6 + 25 x7 + 28 x8 + 16 x9 + 67 x10
     <= 122
 c4: 9 x1 + 92 x2 - 50 x3 + 75 x4 + 51 x5 + 10 x6 + 52 x7 - 6 x8 <= 142
 c5: 47 x1 + 21 x2 + 43 x3 + 66 x4 + 31 x5 + 71 x6 - 60 x7 - 6 x8 + 57 x9
     + 16 x10 <= 154
Bounds
      x1 >= 0
      x2 >= 0
      x3 >= 0
      x4 >= 0
      x5 >= 0
      x6 >= 0
      x7 >= 0
      x8 >= 0
      x9 >= 0
      x10 >= 0
Generals
 x1  x2  x3  x4  x5  x6  x7  x8  x9  x10 
End
